# Solution for model r10_t9_m6_7
# Finished Task: 9 / 9
# Makespan: 381.0, Total Distance: 420.0, Total Time: 0.0278
# R O S F
0 0 17 0.0 0.0
1 1 16 0.0 0.0
2 2 18 0.0 0.0
3 3 14 0.0 0.0
4 4 -1 0.0 0.0
5 5 -1 0.0 0.0
6 6 -1 0.0 0.0
7 7 -1 0.0 0.0
8 8 -1 0.0 0.0
9 9 -1 0.0 0.0
10 2 -1 323.0 356.0
11 1 -1 289.0 323.0
12 3 -1 351.0 381.0
13 0 -1 314.0 351.0
14 3 12 210.0 236.0
15 0 13 222.0 261.0
16 1 11 173.0 210.0
17 0 15 131.0 152.0
18 2 10 261.0 289.0
